\Problem name: 

Minimize
OBJROW: -32 x_1 -18 x_2 -35 x_3 -64 x_4 -34 x_6 -37 x_8
Subject To
constr(0):  8 x_1 + x_2 + x_3 + 4 x_4 + 11 x_6 + 15 x_8 <= 10
constr(1):  8 x_1 + x_2 + x_3 + 4 x_4 + 11 x_6 + 15 x_8 <= 10
constr(2):  8 x_1 + x_2 + x_3 + 4 x_4 + 11 x_6 + 15 x_8 <= 10
constr(3):  8 x_1 + x_2 + x_3 + 4 x_4 + 11 x_6 + 15 x_8 <= 10
constr(4):  8 x_1 + x_2 + x_3 + 4 x_4 + 11 x_6 + 15 x_8 <= 10
constr(5):  8 x_1 + x_2 + x_3 + 4 x_4 + 11 x_6 + 15 x_8 <= 10
Bounds
 0 <= x_0 <= 1
 0 <= x_1 <= 1
 0 <= x_2 <= 1
 0 <= x_3 <= 1
 0 <= x_4 <= 1
 0 <= x_5 <= 1
 0 <= x_6 <= 1
 0 <= x_7 <= 1
 0 <= x_8 <= 1
 0 <= x_9 <= 1
 0 <= x_10 <= 1
 0 <= x_11 <= 1
 0 <= x_12 <= 1
 0 <= x_13 <= 1
 0 <= x_14 <= 1
 0 <= x_15 <= 1
 0 <= x_16 <= 1
 0 <= x_17 <= 1
 0 <= x_18 <= 1
 0 <= x_19 <= 1
 0 <= x_20 <= 1
 0 <= y_0_0 <= 1
 0 <= y_0_1 <= 1
 0 <= y_0_2 <= 1
 0 <= y_0_3 <= 1
 0 <= y_0_4 <= 1
 0 <= y_0_5 <= 1
 0 <= y_1_0 <= 1
 0 <= y_1_1 <= 1
 0 <= y_1_2 <= 1
 0 <= y_1_3 <= 1
 0 <= y_1_4 <= 1
 0 <= y_1_5 <= 1
 0 <= y_2_0 <= 1
 0 <= y_2_1 <= 1
 0 <= y_2_2 <= 1
 0 <= y_2_3 <= 1
 0 <= y_2_4 <= 1
 0 <= y_2_5 <= 1
 0 <= y_3_0 <= 1
 0 <= y_3_1 <= 1
 0 <= y_3_2 <= 1
 0 <= y_3_3 <= 1
 0 <= y_3_4 <= 1
 0 <= y_3_5 <= 1
 0 <= y_4_0 <= 1
 0 <= y_4_1 <= 1
 0 <= y_4_2 <= 1
 0 <= y_4_3 <= 1
 0 <= y_4_4 <= 1
 0 <= y_4_5 <= 1
 0 <= y_5_0 <= 1
 0 <= y_5_1 <= 1
 0 <= y_5_2 <= 1
 0 <= y_5_3 <= 1
 0 <= y_5_4 <= 1
 0 <= y_5_5 <= 1
 0 <= y_6_0 <= 1
 0 <= y_6_1 <= 1
 0 <= y_6_2 <= 1
 0 <= y_6_3 <= 1
 0 <= y_6_4 <= 1
 0 <= y_6_5 <= 1
 0 <= y_7_0 <= 1
 0 <= y_7_1 <= 1
 0 <= y_7_2 <= 1
 0 <= y_7_3 <= 1
 0 <= y_7_4 <= 1
 0 <= y_7_5 <= 1
 0 <= y_8_0 <= 1
 0 <= y_8_1 <= 1
 0 <= y_8_2 <= 1
 0 <= y_8_3 <= 1
 0 <= y_8_4 <= 1
 0 <= y_8_5 <= 1
 0 <= y_9_0 <= 1
 0 <= y_9_1 <= 1
 0 <= y_9_2 <= 1
 0 <= y_9_3 <= 1
 0 <= y_9_4 <= 1
 0 <= y_9_5 <= 1
 0 <= y_10_0 <= 1
 0 <= y_10_1 <= 1
 0 <= y_10_2 <= 1
 0 <= y_10_3 <= 1
 0 <= y_10_4 <= 1
 0 <= y_10_5 <= 1
 0 <= y_11_0 <= 1
 0 <= y_11_1 <= 1
 0 <= y_11_2 <= 1
 0 <= y_11_3 <= 1
 0 <= y_11_4 <= 1
 0 <= y_11_5 <= 1
 0 <= y_12_0 <= 1
 0 <= y_12_1 <= 1
 0 <= y_12_2 <= 1
 0 <= y_12_3 <= 1
 0 <= y_12_4 <= 1
 0 <= y_12_5 <= 1
 0 <= y_13_0 <= 1
 0 <= y_13_1 <= 1
 0 <= y_13_2 <= 1
 0 <= y_13_3 <= 1
 0 <= y_13_4 <= 1
 0 <= y_13_5 <= 1
 0 <= y_14_0 <= 1
 0 <= y_14_1 <= 1
 0 <= y_14_2 <= 1
 0 <= y_14_3 <= 1
 0 <= y_14_4 <= 1
 0 <= y_14_5 <= 1
 0 <= y_15_0 <= 1
 0 <= y_15_1 <= 1
 0 <= y_15_2 <= 1
 0 <= y_15_3 <= 1
 0 <= y_15_4 <= 1
 0 <= y_15_5 <= 1
 0 <= y_16_0 <= 1
 0 <= y_16_1 <= 1
 0 <= y_16_2 <= 1
 0 <= y_16_3 <= 1
 0 <= y_16_4 <= 1
 0 <= y_16_5 <= 1
 0 <= y_17_0 <= 1
 0 <= y_17_1 <= 1
 0 <= y_17_2 <= 1
 0 <= y_17_3 <= 1
 0 <= y_17_4 <= 1
 0 <= y_17_5 <= 1
 0 <= y_18_0 <= 1
 0 <= y_18_1 <= 1
 0 <= y_18_2 <= 1
 0 <= y_18_3 <= 1
 0 <= y_18_4 <= 1
 0 <= y_18_5 <= 1
 0 <= y_19_0 <= 1
 0 <= y_19_1 <= 1
 0 <= y_19_2 <= 1
 0 <= y_19_3 <= 1
 0 <= y_19_4 <= 1
 0 <= y_19_5 <= 1
 0 <= y_20_0 <= 1
 0 <= y_20_1 <= 1
 0 <= y_20_2 <= 1
 0 <= y_20_3 <= 1
 0 <= y_20_4 <= 1
 0 <= y_20_5 <= 1
Integers
x_0 x_1 x_2 x_3 x_4 x_5 x_6 x_7 x_8 x_9 
x_10 x_11 x_12 x_13 x_14 x_15 x_16 x_17 x_18 x_19 
x_20 y_0_0 y_0_1 y_0_2 y_0_3 y_0_4 y_0_5 y_1_0 y_1_1 y_1_2 
y_1_3 y_1_4 y_1_5 y_2_0 y_2_1 y_2_2 y_2_3 y_2_4 y_2_5 y_3_0 
y_3_1 y_3_2 y_3_3 y_3_4 y_3_5 y_4_0 y_4_1 y_4_2 y_4_3 y_4_4 
y_4_5 y_5_0 y_5_1 y_5_2 y_5_3 y_5_4 y_5_5 y_6_0 y_6_1 y_6_2 
y_6_3 y_6_4 y_6_5 y_7_0 y_7_1 y_7_2 y_7_3 y_7_4 y_7_5 y_8_0 
y_8_1 y_8_2 y_8_3 y_8_4 y_8_5 y_9_0 y_9_1 y_9_2 y_9_3 y_9_4 
y_9_5 y_10_0 y_10_1 y_10_2 y_10_3 y_10_4 y_10_5 y_11_0 y_11_1 y_11_2 
y_11_3 y_11_4 y_11_5 y_12_0 y_12_1 y_12_2 y_12_3 y_12_4 y_12_5 y_13_0 
y_13_1 y_13_2 y_13_3 y_13_4 y_13_5 y_14_0 y_14_1 y_14_2 y_14_3 y_14_4 
y_14_5 y_15_0 y_15_1 y_15_2 y_15_3 y_15_4 y_15_5 y_16_0 y_16_1 y_16_2 
y_16_3 y_16_4 y_16_5 y_17_0 y_17_1 y_17_2 y_17_3 y_17_4 y_17_5 y_18_0 
y_18_1 y_18_2 y_18_3 y_18_4 y_18_5 y_19_0 y_19_1 y_19_2 y_19_3 y_19_4 
y_19_5 y_20_0 y_20_1 y_20_2 y_20_3 y_20_4 y_20_5 
End
